(set-info :smt-lib-version 2.6)
(set-logic QF_NIA)
(set-info :source |
Generated by: Cristina Borralleras, Daniel Larraz, Albert Oliveras, Enric Rodriguez-Carbonell, Albert Rubio
Generated on: 2017-04-27
Generator: VeryMax
Application: Termination proving
Target solver: barcelogic
|)
(set-info :license "https://creativecommons.org/licenses/by/4.0/")
(set-info :category "industrial")
(set-info :status unsat)
(declare-fun Nl2arg11 () Int)
(declare-fun Nl2arg21 () Int)
(declare-fun Nl2arg31 () Int)
(declare-fun Nl2arg41 () Int)
(declare-fun Nl3arg11 () Int)
(declare-fun Nl3arg21 () Int)
(declare-fun Nl3arg31 () Int)
(declare-fun Nl3arg41 () Int)
(declare-fun Nl4arg11 () Int)
(declare-fun Nl4arg21 () Int)
(declare-fun Nl4arg31 () Int)
(declare-fun Nl4arg41 () Int)
(declare-fun lam0n0 () Int)
(declare-fun lam0n1 () Int)
(declare-fun lam0n2 () Int)
(declare-fun lam0n3 () Int)
(declare-fun lam0n4 () Int)
(declare-fun lam0n5 () Int)
(declare-fun lam0n7 () Int)
(declare-fun lam0n6 () Int)
(declare-fun Nl2CT1 () Int)
(declare-fun lam1n0 () Int)
(declare-fun lam1n1 () Int)
(declare-fun lam1n2 () Int)
(declare-fun lam1n3 () Int)
(declare-fun lam1n4 () Int)
(declare-fun lam1n5 () Int)
(declare-fun lam1n7 () Int)
(declare-fun lam1n6 () Int)
(declare-fun Nl3CT1 () Int)
(declare-fun lam2n0 () Int)
(declare-fun lam2n1 () Int)
(declare-fun lam2n2 () Int)
(declare-fun lam2n3 () Int)
(declare-fun lam2n4 () Int)
(declare-fun lam2n5 () Int)
(declare-fun lam2n8 () Int)
(declare-fun lam2n6 () Int)
(declare-fun lam2n7 () Int)
(declare-fun lam3n0 () Int)
(declare-fun lam3n1 () Int)
(declare-fun lam3n2 () Int)
(declare-fun lam3n3 () Int)
(declare-fun lam3n4 () Int)
(declare-fun lam3n5 () Int)
(declare-fun lam3n8 () Int)
(declare-fun lam3n6 () Int)
(declare-fun lam3n7 () Int)
(declare-fun lam4n0 () Int)
(declare-fun lam4n1 () Int)
(declare-fun lam4n2 () Int)
(declare-fun lam4n3 () Int)
(declare-fun lam4n4 () Int)
(declare-fun lam4n6 () Int)
(declare-fun lam4n5 () Int)
(declare-fun lam5n0 () Int)
(declare-fun lam5n1 () Int)
(declare-fun lam5n2 () Int)
(declare-fun lam5n3 () Int)
(declare-fun lam5n4 () Int)
(declare-fun lam5n6 () Int)
(declare-fun lam5n5 () Int)
(declare-fun lam6n0 () Int)
(declare-fun lam6n1 () Int)
(declare-fun lam6n2 () Int)
(declare-fun lam6n3 () Int)
(declare-fun lam6n4 () Int)
(declare-fun lam6n7 () Int)
(declare-fun lam6n5 () Int)
(declare-fun lam6n6 () Int)
(declare-fun lam7n0 () Int)
(declare-fun lam7n1 () Int)
(declare-fun lam7n2 () Int)
(declare-fun lam7n3 () Int)
(declare-fun lam7n4 () Int)
(declare-fun lam7n7 () Int)
(declare-fun lam7n5 () Int)
(declare-fun lam7n6 () Int)
(declare-fun lam8n0 () Int)
(declare-fun lam8n1 () Int)
(declare-fun lam8n2 () Int)
(declare-fun lam8n4 () Int)
(declare-fun lam8n3 () Int)
(declare-fun lam9n0 () Int)
(declare-fun lam9n1 () Int)
(declare-fun lam9n2 () Int)
(declare-fun lam9n4 () Int)
(declare-fun lam9n3 () Int)
(declare-fun lam10n0 () Int)
(declare-fun lam10n1 () Int)
(declare-fun lam10n2 () Int)
(declare-fun lam10n5 () Int)
(declare-fun lam10n3 () Int)
(declare-fun lam10n4 () Int)
(declare-fun lam11n0 () Int)
(declare-fun lam11n1 () Int)
(declare-fun lam11n2 () Int)
(declare-fun lam11n5 () Int)
(declare-fun lam11n3 () Int)
(declare-fun lam11n4 () Int)
(declare-fun lam12n0 () Int)
(declare-fun lam12n1 () Int)
(declare-fun lam12n2 () Int)
(declare-fun lam12n3 () Int)
(declare-fun lam12n6 () Int)
(declare-fun lam12n4 () Int)
(declare-fun lam12n5 () Int)
(declare-fun lam13n0 () Int)
(declare-fun lam13n1 () Int)
(declare-fun lam13n2 () Int)
(declare-fun lam13n3 () Int)
(declare-fun lam13n6 () Int)
(declare-fun lam13n4 () Int)
(declare-fun lam13n5 () Int)
(declare-fun lam14n0 () Int)
(declare-fun lam14n1 () Int)
(declare-fun lam14n2 () Int)
(declare-fun lam14n3 () Int)
(declare-fun lam14n4 () Int)
(declare-fun lam14n5 () Int)
(declare-fun lam14n6 () Int)
(declare-fun lam14n7 () Int)
(declare-fun lam14n9 () Int)
(declare-fun lam14n8 () Int)
(declare-fun lam15n0 () Int)
(declare-fun lam15n1 () Int)
(declare-fun lam15n2 () Int)
(declare-fun lam15n3 () Int)
(declare-fun lam15n4 () Int)
(declare-fun lam15n5 () Int)
(declare-fun lam15n6 () Int)
(declare-fun lam15n7 () Int)
(declare-fun lam15n9 () Int)
(declare-fun lam15n8 () Int)
(declare-fun Nl4CT1 () Int)
(declare-fun lam16n0 () Int)
(declare-fun lam16n1 () Int)
(declare-fun lam16n2 () Int)
(declare-fun lam16n3 () Int)
(declare-fun lam16n4 () Int)
(declare-fun lam16n5 () Int)
(declare-fun lam16n6 () Int)
(declare-fun lam16n9 () Int)
(declare-fun lam16n7 () Int)
(declare-fun lam16n8 () Int)
(declare-fun lam17n0 () Int)
(declare-fun lam17n1 () Int)
(declare-fun lam17n2 () Int)
(declare-fun lam17n3 () Int)
(declare-fun lam17n4 () Int)
(declare-fun lam17n5 () Int)
(declare-fun lam17n6 () Int)
(declare-fun lam17n9 () Int)
(declare-fun lam17n7 () Int)
(declare-fun lam17n8 () Int)
(declare-fun lam18n0 () Int)
(declare-fun lam18n1 () Int)
(declare-fun lam18n2 () Int)
(declare-fun lam18n3 () Int)
(declare-fun lam18n4 () Int)
(declare-fun lam18n6 () Int)
(declare-fun lam18n5 () Int)
(declare-fun lam19n0 () Int)
(declare-fun lam19n1 () Int)
(declare-fun lam19n2 () Int)
(declare-fun lam19n3 () Int)
(declare-fun lam19n4 () Int)
(declare-fun lam19n6 () Int)
(declare-fun lam19n5 () Int)
(declare-fun lam20n0 () Int)
(declare-fun lam20n1 () Int)
(declare-fun lam20n2 () Int)
(declare-fun lam20n3 () Int)
(declare-fun lam20n4 () Int)
(declare-fun lam20n7 () Int)
(declare-fun lam20n5 () Int)
(declare-fun lam20n6 () Int)
(declare-fun lam21n0 () Int)
(declare-fun lam21n1 () Int)
(declare-fun lam21n2 () Int)
(declare-fun lam21n3 () Int)
(declare-fun lam21n4 () Int)
(declare-fun lam21n7 () Int)
(declare-fun lam21n5 () Int)
(declare-fun lam21n6 () Int)
(declare-fun lam22n0 () Int)
(declare-fun lam22n1 () Int)
(declare-fun lam22n2 () Int)
(declare-fun lam22n3 () Int)
(declare-fun lam22n4 () Int)
(declare-fun lam23n0 () Int)
(declare-fun lam23n1 () Int)
(declare-fun lam23n2 () Int)
(declare-fun lam23n3 () Int)
(declare-fun lam23n4 () Int)
(declare-fun lam24n0 () Int)
(declare-fun lam24n1 () Int)
(declare-fun lam24n2 () Int)
(declare-fun lam24n3 () Int)
(declare-fun lam24n4 () Int)
(declare-fun lam24n5 () Int)
(declare-fun lam25n0 () Int)
(declare-fun lam25n1 () Int)
(declare-fun lam25n2 () Int)
(declare-fun lam25n3 () Int)
(declare-fun lam25n4 () Int)
(declare-fun lam25n5 () Int)
(declare-fun lam26n0 () Int)
(declare-fun lam26n1 () Int)
(declare-fun lam26n2 () Int)
(declare-fun lam26n3 () Int)
(declare-fun lam26n4 () Int)
(declare-fun lam26n5 () Int)
(declare-fun lam26n6 () Int)
(declare-fun lam26n7 () Int)
(assert ( and ( <= ( - 1 ) Nl2arg11 ) ( <= Nl2arg11 1 ) ( <= ( - 1 ) Nl2arg21 ) ( <= Nl2arg21 1 ) ( <= ( - 1 ) Nl2arg31 ) ( <= Nl2arg31 1 ) ( <= ( - 1 ) Nl2arg41 ) ( <= Nl2arg41 1 ) ( <= ( - 1 ) Nl3arg11 ) ( <= Nl3arg11 1 ) ( <= ( - 1 ) Nl3arg21 ) ( <= Nl3arg21 1 ) ( <= ( - 1 ) Nl3arg31 ) ( <= Nl3arg31 1 ) ( <= ( - 1 ) Nl3arg41 ) ( <= Nl3arg41 1 ) ( <= ( - 1 ) Nl4arg11 ) ( <= Nl4arg11 1 ) ( <= ( - 1 ) Nl4arg21 ) ( <= Nl4arg21 1 ) ( <= ( - 1 ) Nl4arg31 ) ( <= Nl4arg31 1 ) ( <= ( - 1 ) Nl4arg41 ) ( <= Nl4arg41 1 ) ))
(assert ( or ( and ( >= lam0n0 0 ) ( >= lam0n1 0 ) ( >= lam0n2 0 ) ( >= lam0n3 0 ) ( >= lam0n4 0 ) ( >= lam0n5 0 ) ( >= lam0n7 0 ) ( > ( + ( * 1 lam0n0 ) ( * 1 lam0n1 ) ( * 1 lam0n2 ) ( * 1 lam0n3 ) ( * 1 lam0n4 ) ( * ( - 1 ) lam0n6 ) ( * Nl2CT1 lam0n7 ) ( - 1 ) ) 0 ) ( = ( + ( * ( - 1 ) lam0n0 ) ( * ( - 1 ) lam0n5 ) ( * Nl2arg11 lam0n7 ) ) 0 ) ( = ( + ( * 1 lam0n1 ) ( * ( - 1 ) lam0n2 ) ( * ( - 1 ) lam0n3 ) ( * 1 lam0n6 ) ( * Nl2arg21 lam0n7 ) ) 0 ) ( = ( + ( * ( - 1 ) lam0n1 ) ( * Nl2arg31 lam0n7 ) ) 0 ) ( = ( * Nl2arg41 lam0n7 ) 0 ) ( = ( * ( - 2 ) lam0n6 ) 0 ) ( = ( * 5 lam0n2 ) 0 ) ( = ( * 3 lam0n3 ) 0 ) ( = ( + ( * ( - 1 ) lam0n4 ) ( * 1 lam0n5 ) ) 0 ) ) ( and ( >= lam1n0 0 ) ( >= lam1n1 0 ) ( >= lam1n2 0 ) ( >= lam1n3 0 ) ( >= lam1n4 0 ) ( >= lam1n5 0 ) ( >= lam1n7 0 ) ( > ( + ( * 1 lam1n0 ) ( * 1 lam1n1 ) ( * 1 lam1n2 ) ( * 1 lam1n3 ) ( * 1 lam1n4 ) ( * ( - 1 ) lam1n6 ) ( * Nl2CT1 lam1n7 ) ( - 1 ( + Nl3CT1 ( * Nl3arg41 0 ) ) ) ) 0 ) ( = ( + ( * ( - 1 ) lam1n0 ) ( * ( - 1 ) lam1n5 ) ( * Nl2arg11 lam1n7 ) ( - ( + 0 Nl3arg11 ) ) ) 0 ) ( = ( + ( * 1 lam1n1 ) ( * ( - 1 ) lam1n2 ) ( * ( - 1 ) lam1n3 ) ( * 1 lam1n6 ) ( * Nl2arg21 lam1n7 ) ( - ( + 0 Nl3arg21 ) ) ) 0 ) ( = ( + ( * ( - 1 ) lam1n1 ) ( * Nl2arg31 lam1n7 ) ( - ( + 0 Nl3arg31 ) ) ) 0 ) ( = ( * Nl2arg41 lam1n7 ) 0 ) ( = ( - ( + 0 ( * Nl3arg41 1 ) ) ) 0 ) ( = ( * ( - 2 ) lam1n6 ) 0 ) ( = ( * 5 lam1n2 ) 0 ) ( = ( * 3 lam1n3 ) 0 ) ( = ( + ( * ( - 1 ) lam1n4 ) ( * 1 lam1n5 ) ) 0 ) ) ))
(assert ( or ( and ( >= lam2n0 0 ) ( >= lam2n1 0 ) ( >= lam2n2 0 ) ( >= lam2n3 0 ) ( >= lam2n4 0 ) ( >= lam2n5 0 ) ( >= lam2n8 0 ) ( > ( + ( * 1 lam2n0 ) ( * 1 lam2n1 ) ( * 1 lam2n2 ) ( * 1 lam2n3 ) ( * 1 lam2n4 ) ( * ( - 1 ) lam2n6 ) ( * Nl2CT1 lam2n8 ) ( - 1 ) ) 0 ) ( = ( + ( * ( - 1 ) lam2n0 ) ( * ( - 1 ) lam2n5 ) ( * Nl2arg11 lam2n8 ) ) 0 ) ( = ( + ( * 1 lam2n1 ) ( * ( - 1 ) lam2n2 ) ( * 1 lam2n6 ) ( * 1 lam2n7 ) ( * Nl2arg21 lam2n8 ) ) 0 ) ( = ( + ( * ( - 1 ) lam2n1 ) ( * ( - 1 ) lam2n3 ) ( * Nl2arg31 lam2n8 ) ) 0 ) ( = ( * Nl2arg41 lam2n8 ) 0 ) ( = ( * ( - 2 ) lam2n6 ) 0 ) ( = ( * 3 lam2n2 ) 0 ) ( = ( * ( - 5 ) lam2n7 ) 0 ) ( = ( + ( * ( - 1 ) lam2n4 ) ( * 1 lam2n5 ) ) 0 ) ) ( and ( >= lam3n0 0 ) ( >= lam3n1 0 ) ( >= lam3n2 0 ) ( >= lam3n3 0 ) ( >= lam3n4 0 ) ( >= lam3n5 0 ) ( >= lam3n8 0 ) ( > ( + ( * 1 lam3n0 ) ( * 1 lam3n1 ) ( * 1 lam3n2 ) ( * 1 lam3n3 ) ( * 1 lam3n4 ) ( * ( - 1 ) lam3n6 ) ( * Nl2CT1 lam3n8 ) ( - 1 ( + Nl3CT1 ( * Nl3arg41 0 ) ) ) ) 0 ) ( = ( + ( * ( - 1 ) lam3n0 ) ( * ( - 1 ) lam3n5 ) ( * Nl2arg11 lam3n8 ) ( - ( + 0 Nl3arg11 ) ) ) 0 ) ( = ( + ( * 1 lam3n1 ) ( * ( - 1 ) lam3n2 ) ( * 1 lam3n6 ) ( * 1 lam3n7 ) ( * Nl2arg21 lam3n8 ) ( - ( + 0 Nl3arg21 ) ) ) 0 ) ( = ( + ( * ( - 1 ) lam3n1 ) ( * ( - 1 ) lam3n3 ) ( * Nl2arg31 lam3n8 ) ( - ( + 0 Nl3arg31 ) ) ) 0 ) ( = ( * Nl2arg41 lam3n8 ) 0 ) ( = ( - ( + 0 ( * Nl3arg41 1 ) ) ) 0 ) ( = ( * ( - 2 ) lam3n6 ) 0 ) ( = ( * 3 lam3n2 ) 0 ) ( = ( * ( - 5 ) lam3n7 ) 0 ) ( = ( + ( * ( - 1 ) lam3n4 ) ( * 1 lam3n5 ) ) 0 ) ) ))
(assert ( or ( and ( >= lam4n0 0 ) ( >= lam4n1 0 ) ( >= lam4n2 0 ) ( >= lam4n3 0 ) ( >= lam4n4 0 ) ( >= lam4n6 0 ) ( > ( + ( * 1 lam4n0 ) ( * 1 lam4n1 ) ( * 1 lam4n2 ) ( * 1 lam4n3 ) ( * Nl2CT1 lam4n6 ) ( - 1 ) ) 0 ) ( = ( + ( * ( - 1 ) lam4n0 ) ( * ( - 1 ) lam4n4 ) ( * Nl2arg11 lam4n6 ) ) 0 ) ( = ( + ( * 1 lam4n1 ) ( * 1 lam4n5 ) ( * Nl2arg21 lam4n6 ) ) 0 ) ( = ( + ( * ( - 1 ) lam4n1 ) ( * ( - 1 ) lam4n2 ) ( * Nl2arg31 lam4n6 ) ) 0 ) ( = ( * Nl2arg41 lam4n6 ) 0 ) ( = ( * ( - 2 ) lam4n5 ) 0 ) ( = ( + ( * ( - 1 ) lam4n3 ) ( * 1 lam4n4 ) ) 0 ) ) ( and ( >= lam5n0 0 ) ( >= lam5n1 0 ) ( >= lam5n2 0 ) ( >= lam5n3 0 ) ( >= lam5n4 0 ) ( >= lam5n6 0 ) ( > ( + ( * 1 lam5n0 ) ( * 1 lam5n1 ) ( * 1 lam5n2 ) ( * 1 lam5n3 ) ( * Nl2CT1 lam5n6 ) ( - 1 ( + Nl3CT1 ( * Nl3arg41 0 ) ) ) ) 0 ) ( = ( + ( * ( - 1 ) lam5n0 ) ( * ( - 1 ) lam5n4 ) ( * Nl2arg11 lam5n6 ) ( - ( + 0 Nl3arg11 ) ) ) 0 ) ( = ( + ( * 1 lam5n1 ) ( * 1 lam5n5 ) ( * Nl2arg21 lam5n6 ) ( - ( + 0 Nl3arg21 ) ) ) 0 ) ( = ( + ( * ( - 1 ) lam5n1 ) ( * ( - 1 ) lam5n2 ) ( * Nl2arg31 lam5n6 ) ( - ( + 0 Nl3arg31 ) ) ) 0 ) ( = ( * Nl2arg41 lam5n6 ) 0 ) ( = ( - ( + 0 ( * Nl3arg41 1 ) ) ) 0 ) ( = ( * ( - 2 ) lam5n5 ) 0 ) ( = ( + ( * ( - 1 ) lam5n3 ) ( * 1 lam5n4 ) ) 0 ) ) ))
(assert ( or ( and ( >= lam6n0 0 ) ( >= lam6n1 0 ) ( >= lam6n2 0 ) ( >= lam6n3 0 ) ( >= lam6n4 0 ) ( >= lam6n7 0 ) ( > ( + ( * 1 lam6n0 ) ( * 1 lam6n1 ) ( * 1 lam6n2 ) ( * 1 lam6n3 ) ( * ( - 1 ) lam6n5 ) ( * Nl2CT1 lam6n7 ) ( - 1 ) ) 0 ) ( = ( + ( * ( - 1 ) lam6n0 ) ( * ( - 1 ) lam6n4 ) ( * Nl2arg11 lam6n7 ) ) 0 ) ( = ( + ( * 1 lam6n1 ) ( * 1 lam6n5 ) ( * 1 lam6n6 ) ( * Nl2arg21 lam6n7 ) ) 0 ) ( = ( + ( * ( - 1 ) lam6n1 ) ( * ( - 1 ) lam6n2 ) ( * Nl2arg31 lam6n7 ) ) 0 ) ( = ( * Nl2arg41 lam6n7 ) 0 ) ( = ( * ( - 2 ) lam6n5 ) 0 ) ( = ( * ( - 3 ) lam6n6 ) 0 ) ( = ( + ( * ( - 1 ) lam6n3 ) ( * 1 lam6n4 ) ) 0 ) ) ( and ( >= lam7n0 0 ) ( >= lam7n1 0 ) ( >= lam7n2 0 ) ( >= lam7n3 0 ) ( >= lam7n4 0 ) ( >= lam7n7 0 ) ( > ( + ( * 1 lam7n0 ) ( * 1 lam7n1 ) ( * 1 lam7n2 ) ( * 1 lam7n3 ) ( * ( - 1 ) lam7n5 ) ( * Nl2CT1 lam7n7 ) ( - 1 ( + Nl3CT1 ( * Nl3arg41 0 ) ) ) ) 0 ) ( = ( + ( * ( - 1 ) lam7n0 ) ( * ( - 1 ) lam7n4 ) ( * Nl2arg11 lam7n7 ) ( - ( + 0 Nl3arg11 ) ) ) 0 ) ( = ( + ( * 1 lam7n1 ) ( * 1 lam7n5 ) ( * 1 lam7n6 ) ( * Nl2arg21 lam7n7 ) ( - ( + 0 Nl3arg21 ) ) ) 0 ) ( = ( + ( * ( - 1 ) lam7n1 ) ( * ( - 1 ) lam7n2 ) ( * Nl2arg31 lam7n7 ) ( - ( + 0 Nl3arg31 ) ) ) 0 ) ( = ( * Nl2arg41 lam7n7 ) 0 ) ( = ( - ( + 0 ( * Nl3arg41 1 ) ) ) 0 ) ( = ( * ( - 2 ) lam7n5 ) 0 ) ( = ( * ( - 3 ) lam7n6 ) 0 ) ( = ( + ( * ( - 1 ) lam7n3 ) ( * 1 lam7n4 ) ) 0 ) ) ))
(assert ( or ( and ( >= lam8n0 0 ) ( >= lam8n1 0 ) ( >= lam8n2 0 ) ( >= lam8n4 0 ) ( > ( + ( * 1 lam8n0 ) ( * 1 lam8n1 ) ( * 1 lam8n2 ) ( * Nl2CT1 lam8n4 ) ( - 1 ) ) 0 ) ( = ( + ( * ( - 1 ) lam8n0 ) ( * Nl2arg11 lam8n4 ) ) 0 ) ( = ( + ( * 1 lam8n1 ) ( * 1 lam8n3 ) ( * Nl2arg21 lam8n4 ) ) 0 ) ( = ( + ( * ( - 1 ) lam8n1 ) ( * ( - 1 ) lam8n2 ) ( * Nl2arg31 lam8n4 ) ) 0 ) ( = ( * Nl2arg41 lam8n4 ) 0 ) ( = ( * ( - 2 ) lam8n3 ) 0 ) ) ( and ( >= lam9n0 0 ) ( >= lam9n1 0 ) ( >= lam9n2 0 ) ( >= lam9n4 0 ) ( > ( + ( * 1 lam9n0 ) ( * 1 lam9n1 ) ( * 1 lam9n2 ) ( * Nl2CT1 lam9n4 ) ( - 1 ( + Nl3CT1 ( * Nl3arg41 0 ) ) ) ) 0 ) ( = ( + ( * ( - 1 ) lam9n0 ) ( * Nl2arg11 lam9n4 ) ( - ( + 0 Nl3arg11 ) ) ) 0 ) ( = ( + ( * 1 lam9n1 ) ( * 1 lam9n3 ) ( * Nl2arg21 lam9n4 ) ( - ( + 0 Nl3arg21 ) ) ) 0 ) ( = ( + ( * ( - 1 ) lam9n1 ) ( * ( - 1 ) lam9n2 ) ( * Nl2arg31 lam9n4 ) ( - ( + 0 Nl3arg31 ) ) ) 0 ) ( = ( * Nl2arg41 lam9n4 ) 0 ) ( = ( - ( + 0 ( * Nl3arg41 1 ) ) ) 0 ) ( = ( * ( - 2 ) lam9n3 ) 0 ) ) ))
(assert ( or ( and ( >= lam10n0 0 ) ( >= lam10n1 0 ) ( >= lam10n2 0 ) ( >= lam10n5 0 ) ( > ( + ( * 1 lam10n0 ) ( * 1 lam10n1 ) ( * 1 lam10n2 ) ( * ( - 1 ) lam10n3 ) ( * Nl2CT1 lam10n5 ) ( - 1 ) ) 0 ) ( = ( + ( * ( - 1 ) lam10n0 ) ( * Nl2arg11 lam10n5 ) ) 0 ) ( = ( + ( * 1 lam10n1 ) ( * 1 lam10n3 ) ( * 1 lam10n4 ) ( * Nl2arg21 lam10n5 ) ) 0 ) ( = ( + ( * ( - 1 ) lam10n1 ) ( * ( - 1 ) lam10n2 ) ( * Nl2arg31 lam10n5 ) ) 0 ) ( = ( * Nl2arg41 lam10n5 ) 0 ) ( = ( * ( - 2 ) lam10n3 ) 0 ) ( = ( * ( - 3 ) lam10n4 ) 0 ) ) ( and ( >= lam11n0 0 ) ( >= lam11n1 0 ) ( >= lam11n2 0 ) ( >= lam11n5 0 ) ( > ( + ( * 1 lam11n0 ) ( * 1 lam11n1 ) ( * 1 lam11n2 ) ( * ( - 1 ) lam11n3 ) ( * Nl2CT1 lam11n5 ) ( - 1 ( + Nl3CT1 ( * Nl3arg41 0 ) ) ) ) 0 ) ( = ( + ( * ( - 1 ) lam11n0 ) ( * Nl2arg11 lam11n5 ) ( - ( + 0 Nl3arg11 ) ) ) 0 ) ( = ( + ( * 1 lam11n1 ) ( * 1 lam11n3 ) ( * 1 lam11n4 ) ( * Nl2arg21 lam11n5 ) ( - ( + 0 Nl3arg21 ) ) ) 0 ) ( = ( + ( * ( - 1 ) lam11n1 ) ( * ( - 1 ) lam11n2 ) ( * Nl2arg31 lam11n5 ) ( - ( + 0 Nl3arg31 ) ) ) 0 ) ( = ( * Nl2arg41 lam11n5 ) 0 ) ( = ( - ( + 0 ( * Nl3arg41 1 ) ) ) 0 ) ( = ( * ( - 2 ) lam11n3 ) 0 ) ( = ( * ( - 3 ) lam11n4 ) 0 ) ) ))
(assert ( or ( and ( >= lam12n0 0 ) ( >= lam12n1 0 ) ( >= lam12n2 0 ) ( >= lam12n3 0 ) ( >= lam12n6 0 ) ( > ( + ( * 1 lam12n0 ) ( * 1 lam12n1 ) ( * 1 lam12n2 ) ( * 1 lam12n3 ) ( * ( - 1 ) lam12n4 ) ( * Nl2CT1 lam12n6 ) ( - 1 ) ) 0 ) ( = ( + ( * ( - 1 ) lam12n0 ) ( * Nl2arg11 lam12n6 ) ) 0 ) ( = ( + ( * 1 lam12n1 ) ( * ( - 1 ) lam12n2 ) ( * 1 lam12n4 ) ( * 1 lam12n5 ) ( * Nl2arg21 lam12n6 ) ) 0 ) ( = ( + ( * ( - 1 ) lam12n1 ) ( * ( - 1 ) lam12n3 ) ( * Nl2arg31 lam12n6 ) ) 0 ) ( = ( * Nl2arg41 lam12n6 ) 0 ) ( = ( * ( - 2 ) lam12n4 ) 0 ) ( = ( * 3 lam12n2 ) 0 ) ( = ( * ( - 5 ) lam12n5 ) 0 ) ) ( and ( >= lam13n0 0 ) ( >= lam13n1 0 ) ( >= lam13n2 0 ) ( >= lam13n3 0 ) ( >= lam13n6 0 ) ( > ( + ( * 1 lam13n0 ) ( * 1 lam13n1 ) ( * 1 lam13n2 ) ( * 1 lam13n3 ) ( * ( - 1 ) lam13n4 ) ( * Nl2CT1 lam13n6 ) ( - 1 ( + Nl3CT1 ( * Nl3arg41 0 ) ) ) ) 0 ) ( = ( + ( * ( - 1 ) lam13n0 ) ( * Nl2arg11 lam13n6 ) ( - ( + 0 Nl3arg11 ) ) ) 0 ) ( = ( + ( * 1 lam13n1 ) ( * ( - 1 ) lam13n2 ) ( * 1 lam13n4 ) ( * 1 lam13n5 ) ( * Nl2arg21 lam13n6 ) ( - ( + 0 Nl3arg21 ) ) ) 0 ) ( = ( + ( * ( - 1 ) lam13n1 ) ( * ( - 1 ) lam13n3 ) ( * Nl2arg31 lam13n6 ) ( - ( + 0 Nl3arg31 ) ) ) 0 ) ( = ( * Nl2arg41 lam13n6 ) 0 ) ( = ( - ( + 0 ( * Nl3arg41 1 ) ) ) 0 ) ( = ( * ( - 2 ) lam13n4 ) 0 ) ( = ( * 3 lam13n2 ) 0 ) ( = ( * ( - 5 ) lam13n5 ) 0 ) ) ))
(assert ( or ( and ( >= lam14n0 0 ) ( >= lam14n1 0 ) ( >= lam14n2 0 ) ( >= lam14n3 0 ) ( >= lam14n4 0 ) ( >= lam14n5 0 ) ( >= lam14n6 0 ) ( >= lam14n7 0 ) ( >= lam14n9 0 ) ( > ( + ( * 1 lam14n0 ) ( * 1 lam14n1 ) ( * 1 lam14n2 ) ( * 1 lam14n3 ) ( * 1 lam14n4 ) ( * ( - 2 ) lam14n6 ) ( * ( - 4 ) lam14n7 ) ( * ( - 1 ) lam14n8 ) ( * Nl3CT1 lam14n9 ) ( - 1 ) ) 0 ) ( = ( + ( * ( - 1 ) lam14n0 ) ( * ( - 1 ) lam14n5 ) ( * Nl3arg11 lam14n9 ) ) 0 ) ( = ( + ( * 1 lam14n1 ) ( * ( - 1 ) lam14n2 ) ( * ( - 1 ) lam14n3 ) ( * 1 lam14n6 ) ( * 1 lam14n7 ) ( * 1 lam14n8 ) ( * Nl3arg21 lam14n9 ) ) 0 ) ( = ( + ( * ( - 1 ) lam14n1 ) ( * Nl3arg31 lam14n9 ) ) 0 ) ( = ( * Nl3arg41 lam14n9 ) 0 ) ( = ( + ( * ( - 1 ) lam14n4 ) ( * 1 lam14n5 ) ) 0 ) ( = ( + ( * 5 lam14n2 ) ( * ( - 5 ) lam14n7 ) ) 0 ) ( = ( + ( * 3 lam14n3 ) ( * ( - 3 ) lam14n6 ) ) 0 ) ( = ( * ( - 2 ) lam14n8 ) 0 ) ) ( and ( >= lam15n0 0 ) ( >= lam15n1 0 ) ( >= lam15n2 0 ) ( >= lam15n3 0 ) ( >= lam15n4 0 ) ( >= lam15n5 0 ) ( >= lam15n6 0 ) ( >= lam15n7 0 ) ( >= lam15n9 0 ) ( > ( + ( * 1 lam15n0 ) ( * 1 lam15n1 ) ( * 1 lam15n2 ) ( * 1 lam15n3 ) ( * 1 lam15n4 ) ( * ( - 2 ) lam15n6 ) ( * ( - 4 ) lam15n7 ) ( * ( - 1 ) lam15n8 ) ( * Nl3CT1 lam15n9 ) ( - 1 ( + ( + ( + Nl4CT1 ( * Nl4arg11 0 ) ) ( * Nl4arg31 0 ) ) ( * Nl4arg41 0 ) ) ) ) 0 ) ( = ( + ( * ( - 1 ) lam15n0 ) ( * ( - 1 ) lam15n5 ) ( * Nl3arg11 lam15n9 ) ) 0 ) ( = ( + ( * 1 lam15n1 ) ( * ( - 1 ) lam15n2 ) ( * ( - 1 ) lam15n3 ) ( * 1 lam15n6 ) ( * 1 lam15n7 ) ( * 1 lam15n8 ) ( * Nl3arg21 lam15n9 ) ( - ( + 0 Nl4arg21 ) ) ) 0 ) ( = ( + ( * ( - 1 ) lam15n1 ) ( * Nl3arg31 lam15n9 ) ( - ( + 0 ( * Nl4arg41 1 ) ) ) ) 0 ) ( = ( * Nl3arg41 lam15n9 ) 0 ) ( = ( + ( * ( - 1 ) lam15n4 ) ( * 1 lam15n5 ) ( - ( + 0 ( * Nl4arg11 1 ) ) ) ) 0 ) ( = ( + ( * 5 lam15n2 ) ( * ( - 5 ) lam15n7 ) ) 0 ) ( = ( + ( * 3 lam15n3 ) ( * ( - 3 ) lam15n6 ) ) 0 ) ( = ( * ( - 2 ) lam15n8 ) 0 ) ) ))
(assert ( or ( and ( >= lam16n0 0 ) ( >= lam16n1 0 ) ( >= lam16n2 0 ) ( >= lam16n3 0 ) ( >= lam16n4 0 ) ( >= lam16n5 0 ) ( >= lam16n6 0 ) ( >= lam16n9 0 ) ( > ( + ( * 1 lam16n0 ) ( * 1 lam16n1 ) ( * 1 lam16n2 ) ( * 1 lam16n3 ) ( * 1 lam16n4 ) ( * ( - 2 ) lam16n6 ) ( * ( - 1 ) lam16n7 ) ( * Nl3CT1 lam16n9 ) ( - 1 ) ) 0 ) ( = ( + ( * ( - 1 ) lam16n0 ) ( * ( - 1 ) lam16n5 ) ( * Nl3arg11 lam16n9 ) ) 0 ) ( = ( + ( * 1 lam16n1 ) ( * ( - 1 ) lam16n2 ) ( * 1 lam16n6 ) ( * 1 lam16n7 ) ( * 1 lam16n8 ) ( * Nl3arg21 lam16n9 ) ) 0 ) ( = ( + ( * ( - 1 ) lam16n1 ) ( * ( - 1 ) lam16n3 ) ( * Nl3arg31 lam16n9 ) ) 0 ) ( = ( * Nl3arg41 lam16n9 ) 0 ) ( = ( + ( * ( - 1 ) lam16n4 ) ( * 1 lam16n5 ) ) 0 ) ( = ( + ( * 3 lam16n2 ) ( * ( - 3 ) lam16n6 ) ) 0 ) ( = ( * ( - 2 ) lam16n7 ) 0 ) ( = ( * ( - 5 ) lam16n8 ) 0 ) ) ( and ( >= lam17n0 0 ) ( >= lam17n1 0 ) ( >= lam17n2 0 ) ( >= lam17n3 0 ) ( >= lam17n4 0 ) ( >= lam17n5 0 ) ( >= lam17n6 0 ) ( >= lam17n9 0 ) ( > ( + ( * 1 lam17n0 ) ( * 1 lam17n1 ) ( * 1 lam17n2 ) ( * 1 lam17n3 ) ( * 1 lam17n4 ) ( * ( - 2 ) lam17n6 ) ( * ( - 1 ) lam17n7 ) ( * Nl3CT1 lam17n9 ) ( - 1 ( + ( + ( + Nl2CT1 ( * Nl2arg11 0 ) ) ( * Nl2arg21 1 ) ) ( * Nl2arg41 0 ) ) ) ) 0 ) ( = ( + ( * ( - 1 ) lam17n0 ) ( * ( - 1 ) lam17n5 ) ( * Nl3arg11 lam17n9 ) ) 0 ) ( = ( + ( * 1 lam17n1 ) ( * ( - 1 ) lam17n2 ) ( * 1 lam17n6 ) ( * 1 lam17n7 ) ( * 1 lam17n8 ) ( * Nl3arg21 lam17n9 ) ( - ( + 0 ( * Nl2arg21 1 ) ) ) ) 0 ) ( = ( + ( * ( - 1 ) lam17n1 ) ( * ( - 1 ) lam17n3 ) ( * Nl3arg31 lam17n9 ) ( - ( + 0 Nl2arg31 ) ) ) 0 ) ( = ( * Nl3arg41 lam17n9 ) 0 ) ( = ( + ( * ( - 1 ) lam17n4 ) ( * 1 lam17n5 ) ( - ( + 0 ( * Nl2arg11 1 ) ) ) ) 0 ) ( = ( - ( + 0 ( * Nl2arg41 1 ) ) ) 0 ) ( = ( + ( * 3 lam17n2 ) ( * ( - 3 ) lam17n6 ) ) 0 ) ( = ( * ( - 2 ) lam17n7 ) 0 ) ( = ( * ( - 5 ) lam17n8 ) 0 ) ) ))
(assert ( or ( and ( >= lam18n0 0 ) ( >= lam18n1 0 ) ( >= lam18n2 0 ) ( >= lam18n3 0 ) ( >= lam18n4 0 ) ( >= lam18n6 0 ) ( > ( + ( * 1 lam18n0 ) ( * 1 lam18n1 ) ( * 1 lam18n2 ) ( * 1 lam18n3 ) ( * Nl3CT1 lam18n6 ) ( - 1 ) ) 0 ) ( = ( + ( * ( - 1 ) lam18n0 ) ( * ( - 1 ) lam18n4 ) ( * Nl3arg11 lam18n6 ) ) 0 ) ( = ( + ( * 1 lam18n1 ) ( * 1 lam18n5 ) ( * Nl3arg21 lam18n6 ) ) 0 ) ( = ( + ( * ( - 1 ) lam18n1 ) ( * ( - 1 ) lam18n2 ) ( * Nl3arg31 lam18n6 ) ) 0 ) ( = ( * Nl3arg41 lam18n6 ) 0 ) ( = ( + ( * ( - 1 ) lam18n3 ) ( * 1 lam18n4 ) ) 0 ) ( = ( * ( - 2 ) lam18n5 ) 0 ) ) ( and ( >= lam19n0 0 ) ( >= lam19n1 0 ) ( >= lam19n2 0 ) ( >= lam19n3 0 ) ( >= lam19n4 0 ) ( >= lam19n6 0 ) ( > ( + ( * 1 lam19n0 ) ( * 1 lam19n1 ) ( * 1 lam19n2 ) ( * 1 lam19n3 ) ( * Nl3CT1 lam19n6 ) ( - 1 ( + ( + ( + Nl2CT1 ( * Nl2arg11 0 ) ) ( * Nl2arg21 1 ) ) ( * Nl2arg41 0 ) ) ) ) 0 ) ( = ( + ( * ( - 1 ) lam19n0 ) ( * ( - 1 ) lam19n4 ) ( * Nl3arg11 lam19n6 ) ) 0 ) ( = ( + ( * 1 lam19n1 ) ( * 1 lam19n5 ) ( * Nl3arg21 lam19n6 ) ( - ( + 0 ( * Nl2arg21 1 ) ) ) ) 0 ) ( = ( + ( * ( - 1 ) lam19n1 ) ( * ( - 1 ) lam19n2 ) ( * Nl3arg31 lam19n6 ) ( - ( + 0 Nl2arg31 ) ) ) 0 ) ( = ( * Nl3arg41 lam19n6 ) 0 ) ( = ( + ( * ( - 1 ) lam19n3 ) ( * 1 lam19n4 ) ( - ( + 0 ( * Nl2arg11 1 ) ) ) ) 0 ) ( = ( - ( + 0 ( * Nl2arg41 1 ) ) ) 0 ) ( = ( * ( - 2 ) lam19n5 ) 0 ) ) ))
(assert ( or ( and ( >= lam20n0 0 ) ( >= lam20n1 0 ) ( >= lam20n2 0 ) ( >= lam20n3 0 ) ( >= lam20n4 0 ) ( >= lam20n7 0 ) ( > ( + ( * 1 lam20n0 ) ( * 1 lam20n1 ) ( * 1 lam20n2 ) ( * 1 lam20n3 ) ( * ( - 1 ) lam20n5 ) ( * Nl3CT1 lam20n7 ) ( - 1 ) ) 0 ) ( = ( + ( * ( - 1 ) lam20n0 ) ( * ( - 1 ) lam20n4 ) ( * Nl3arg11 lam20n7 ) ) 0 ) ( = ( + ( * 1 lam20n1 ) ( * 1 lam20n5 ) ( * 1 lam20n6 ) ( * Nl3arg21 lam20n7 ) ) 0 ) ( = ( + ( * ( - 1 ) lam20n1 ) ( * ( - 1 ) lam20n2 ) ( * Nl3arg31 lam20n7 ) ) 0 ) ( = ( * Nl3arg41 lam20n7 ) 0 ) ( = ( + ( * ( - 1 ) lam20n3 ) ( * 1 lam20n4 ) ) 0 ) ( = ( * ( - 2 ) lam20n5 ) 0 ) ( = ( * ( - 3 ) lam20n6 ) 0 ) ) ( and ( >= lam21n0 0 ) ( >= lam21n1 0 ) ( >= lam21n2 0 ) ( >= lam21n3 0 ) ( >= lam21n4 0 ) ( >= lam21n7 0 ) ( > ( + ( * 1 lam21n0 ) ( * 1 lam21n1 ) ( * 1 lam21n2 ) ( * 1 lam21n3 ) ( * ( - 1 ) lam21n5 ) ( * Nl3CT1 lam21n7 ) ( - 1 ( + ( + ( + Nl2CT1 ( * Nl2arg11 0 ) ) ( * Nl2arg21 1 ) ) ( * Nl2arg41 0 ) ) ) ) 0 ) ( = ( + ( * ( - 1 ) lam21n0 ) ( * ( - 1 ) lam21n4 ) ( * Nl3arg11 lam21n7 ) ) 0 ) ( = ( + ( * 1 lam21n1 ) ( * 1 lam21n5 ) ( * 1 lam21n6 ) ( * Nl3arg21 lam21n7 ) ( - ( + 0 ( * Nl2arg21 1 ) ) ) ) 0 ) ( = ( + ( * ( - 1 ) lam21n1 ) ( * ( - 1 ) lam21n2 ) ( * Nl3arg31 lam21n7 ) ( - ( + 0 Nl2arg31 ) ) ) 0 ) ( = ( * Nl3arg41 lam21n7 ) 0 ) ( = ( + ( * ( - 1 ) lam21n3 ) ( * 1 lam21n4 ) ( - ( + 0 ( * Nl2arg11 1 ) ) ) ) 0 ) ( = ( - ( + 0 ( * Nl2arg41 1 ) ) ) 0 ) ( = ( * ( - 2 ) lam21n5 ) 0 ) ( = ( * ( - 3 ) lam21n6 ) 0 ) ) ))
(assert ( or ( and ( >= lam22n0 0 ) ( >= lam22n1 0 ) ( >= lam22n2 0 ) ( >= lam22n3 0 ) ( >= lam22n4 0 ) ( > ( + ( * 1 lam22n0 ) ( * 1 lam22n1 ) ( * ( - 99 ) lam22n3 ) ( * Nl4CT1 lam22n4 ) ( - 1 ) ) 0 ) ( = ( + ( * ( - 1 ) lam22n0 ) ( * ( - 1 ) lam22n2 ) ( * Nl4arg11 lam22n4 ) ) 0 ) ( = ( * Nl4arg21 lam22n4 ) 0 ) ( = ( + ( * 1 lam22n3 ) ( * Nl4arg31 lam22n4 ) ) 0 ) ( = ( * Nl4arg41 lam22n4 ) 0 ) ( = ( + ( * ( - 1 ) lam22n1 ) ( * 1 lam22n2 ) ) 0 ) ) ( and ( >= lam23n0 0 ) ( >= lam23n1 0 ) ( >= lam23n2 0 ) ( >= lam23n3 0 ) ( >= lam23n4 0 ) ( > ( + ( * 1 lam23n0 ) ( * 1 lam23n1 ) ( * ( - 99 ) lam23n3 ) ( * Nl4CT1 lam23n4 ) ( - 1 ( + ( + Nl4CT1 ( * Nl4arg11 0 ) ) ( * Nl4arg31 1 ) ) ) ) 0 ) ( = ( + ( * ( - 1 ) lam23n0 ) ( * ( - 1 ) lam23n2 ) ( * Nl4arg11 lam23n4 ) ) 0 ) ( = ( + ( * Nl4arg21 lam23n4 ) ( - ( + 0 Nl4arg21 ) ) ) 0 ) ( = ( + ( * 1 lam23n3 ) ( * Nl4arg31 lam23n4 ) ( - ( + 0 ( * Nl4arg31 1 ) ) ) ) 0 ) ( = ( + ( * Nl4arg41 lam23n4 ) ( - ( + 0 Nl4arg41 ) ) ) 0 ) ( = ( + ( * ( - 1 ) lam23n1 ) ( * 1 lam23n2 ) ( - ( + 0 ( * Nl4arg11 1 ) ) ) ) 0 ) ) ))
(assert ( or ( and ( >= lam24n0 0 ) ( >= lam24n1 0 ) ( >= lam24n2 0 ) ( >= lam24n3 0 ) ( >= lam24n4 0 ) ( >= lam24n5 0 ) ( > ( + ( * 1 lam24n0 ) ( * 1 lam24n1 ) ( * 100 lam24n4 ) ( * Nl4CT1 lam24n5 ) ( - 1 ) ) 0 ) ( = ( + ( * ( - 1 ) lam24n0 ) ( * ( - 1 ) lam24n2 ) ( * Nl4arg11 lam24n5 ) ) 0 ) ( = ( * Nl4arg21 lam24n5 ) 0 ) ( = ( + ( * ( - 1 ) lam24n4 ) ( * Nl4arg31 lam24n5 ) ) 0 ) ( = ( + ( * ( - 1 ) lam24n3 ) ( * Nl4arg41 lam24n5 ) ) 0 ) ( = ( + ( * ( - 1 ) lam24n1 ) ( * 1 lam24n2 ) ) 0 ) ) ( and ( >= lam25n0 0 ) ( >= lam25n1 0 ) ( >= lam25n2 0 ) ( >= lam25n3 0 ) ( >= lam25n4 0 ) ( >= lam25n5 0 ) ( > ( + ( * 1 lam25n0 ) ( * 1 lam25n1 ) ( * 100 lam25n4 ) ( * Nl4CT1 lam25n5 ) ( - 1 ( + ( + ( + ( + Nl2CT1 ( * Nl2arg11 0 ) ) ( * Nl2arg21 1 ) ) ( * Nl2arg31 0 ) ) ( * Nl2arg41 0 ) ) ) ) 0 ) ( = ( + ( * ( - 1 ) lam25n0 ) ( * ( - 1 ) lam25n2 ) ( * Nl4arg11 lam25n5 ) ) 0 ) ( = ( + ( * Nl4arg21 lam25n5 ) ( - ( + 0 ( * Nl2arg21 1 ) ) ) ) 0 ) ( = ( + ( * ( - 1 ) lam25n4 ) ( * Nl4arg31 lam25n5 ) ) 0 ) ( = ( + ( * ( - 1 ) lam25n3 ) ( * Nl4arg41 lam25n5 ) ( - ( + 0 ( * Nl2arg31 1 ) ) ) ) 0 ) ( = ( + ( * ( - 1 ) lam25n1 ) ( * 1 lam25n2 ) ( - ( + 0 ( * Nl2arg11 1 ) ) ) ) 0 ) ( = ( - ( + 0 ( * Nl2arg41 1 ) ) ) 0 ) ) ))
(assert ( and ( >= lam26n0 0 ) ( >= lam26n1 0 ) ( >= lam26n2 0 ) ( >= lam26n3 0 ) ( > ( + ( * 1 lam26n0 ) ( * 1 lam26n1 ) ( - 1 Nl2CT1 ) ) 0 ) ( = ( + ( * 1 lam26n4 ) ( - ( + 0 Nl2arg11 ) ) ) 0 ) ( = ( + ( * 1 lam26n5 ) ( - ( + 0 Nl2arg21 ) ) ) 0 ) ( = ( + ( * 1 lam26n6 ) ( - ( + 0 Nl2arg31 ) ) ) 0 ) ( = ( + ( * 1 lam26n7 ) ( - ( + 0 Nl2arg41 ) ) ) 0 ) ( = ( + ( * ( - 1 ) lam26n0 ) ( * 1 lam26n2 ) ( * ( - 1 ) lam26n4 ) ) 0 ) ( = ( * ( - 1 ) lam26n7 ) 0 ) ( = ( + ( * ( - 1 ) lam26n1 ) ( * ( - 1 ) lam26n2 ) ) 0 ) ( = ( + ( * ( - 1 ) lam26n3 ) ( * ( - 1 ) lam26n6 ) ) 0 ) ))
(assert ( or ( and ( >= lam0n0 0 ) ( >= lam0n1 0 ) ( >= lam0n2 0 ) ( >= lam0n3 0 ) ( >= lam0n4 0 ) ( >= lam0n5 0 ) ( >= lam0n7 0 ) ( > ( + ( * 1 lam0n0 ) ( * 1 lam0n1 ) ( * 1 lam0n2 ) ( * 1 lam0n3 ) ( * 1 lam0n4 ) ( * ( - 1 ) lam0n6 ) ( * Nl2CT1 lam0n7 ) ( - 1 ) ) 0 ) ( = ( + ( * ( - 1 ) lam0n0 ) ( * ( - 1 ) lam0n5 ) ( * Nl2arg11 lam0n7 ) ) 0 ) ( = ( + ( * 1 lam0n1 ) ( * ( - 1 ) lam0n2 ) ( * ( - 1 ) lam0n3 ) ( * 1 lam0n6 ) ( * Nl2arg21 lam0n7 ) ) 0 ) ( = ( + ( * ( - 1 ) lam0n1 ) ( * Nl2arg31 lam0n7 ) ) 0 ) ( = ( * Nl2arg41 lam0n7 ) 0 ) ( = ( * ( - 2 ) lam0n6 ) 0 ) ( = ( * 5 lam0n2 ) 0 ) ( = ( * 3 lam0n3 ) 0 ) ( = ( + ( * ( - 1 ) lam0n4 ) ( * 1 lam0n5 ) ) 0 ) ) ( and ( >= lam2n0 0 ) ( >= lam2n1 0 ) ( >= lam2n2 0 ) ( >= lam2n3 0 ) ( >= lam2n4 0 ) ( >= lam2n5 0 ) ( >= lam2n8 0 ) ( > ( + ( * 1 lam2n0 ) ( * 1 lam2n1 ) ( * 1 lam2n2 ) ( * 1 lam2n3 ) ( * 1 lam2n4 ) ( * ( - 1 ) lam2n6 ) ( * Nl2CT1 lam2n8 ) ( - 1 ) ) 0 ) ( = ( + ( * ( - 1 ) lam2n0 ) ( * ( - 1 ) lam2n5 ) ( * Nl2arg11 lam2n8 ) ) 0 ) ( = ( + ( * 1 lam2n1 ) ( * ( - 1 ) lam2n2 ) ( * 1 lam2n6 ) ( * 1 lam2n7 ) ( * Nl2arg21 lam2n8 ) ) 0 ) ( = ( + ( * ( - 1 ) lam2n1 ) ( * ( - 1 ) lam2n3 ) ( * Nl2arg31 lam2n8 ) ) 0 ) ( = ( * Nl2arg41 lam2n8 ) 0 ) ( = ( * ( - 2 ) lam2n6 ) 0 ) ( = ( * 3 lam2n2 ) 0 ) ( = ( * ( - 5 ) lam2n7 ) 0 ) ( = ( + ( * ( - 1 ) lam2n4 ) ( * 1 lam2n5 ) ) 0 ) ) ( and ( >= lam4n0 0 ) ( >= lam4n1 0 ) ( >= lam4n2 0 ) ( >= lam4n3 0 ) ( >= lam4n4 0 ) ( >= lam4n6 0 ) ( > ( + ( * 1 lam4n0 ) ( * 1 lam4n1 ) ( * 1 lam4n2 ) ( * 1 lam4n3 ) ( * Nl2CT1 lam4n6 ) ( - 1 ) ) 0 ) ( = ( + ( * ( - 1 ) lam4n0 ) ( * ( - 1 ) lam4n4 ) ( * Nl2arg11 lam4n6 ) ) 0 ) ( = ( + ( * 1 lam4n1 ) ( * 1 lam4n5 ) ( * Nl2arg21 lam4n6 ) ) 0 ) ( = ( + ( * ( - 1 ) lam4n1 ) ( * ( - 1 ) lam4n2 ) ( * Nl2arg31 lam4n6 ) ) 0 ) ( = ( * Nl2arg41 lam4n6 ) 0 ) ( = ( * ( - 2 ) lam4n5 ) 0 ) ( = ( + ( * ( - 1 ) lam4n3 ) ( * 1 lam4n4 ) ) 0 ) ) ( and ( >= lam6n0 0 ) ( >= lam6n1 0 ) ( >= lam6n2 0 ) ( >= lam6n3 0 ) ( >= lam6n4 0 ) ( >= lam6n7 0 ) ( > ( + ( * 1 lam6n0 ) ( * 1 lam6n1 ) ( * 1 lam6n2 ) ( * 1 lam6n3 ) ( * ( - 1 ) lam6n5 ) ( * Nl2CT1 lam6n7 ) ( - 1 ) ) 0 ) ( = ( + ( * ( - 1 ) lam6n0 ) ( * ( - 1 ) lam6n4 ) ( * Nl2arg11 lam6n7 ) ) 0 ) ( = ( + ( * 1 lam6n1 ) ( * 1 lam6n5 ) ( * 1 lam6n6 ) ( * Nl2arg21 lam6n7 ) ) 0 ) ( = ( + ( * ( - 1 ) lam6n1 ) ( * ( - 1 ) lam6n2 ) ( * Nl2arg31 lam6n7 ) ) 0 ) ( = ( * Nl2arg41 lam6n7 ) 0 ) ( = ( * ( - 2 ) lam6n5 ) 0 ) ( = ( * ( - 3 ) lam6n6 ) 0 ) ( = ( + ( * ( - 1 ) lam6n3 ) ( * 1 lam6n4 ) ) 0 ) ) ( and ( >= lam8n0 0 ) ( >= lam8n1 0 ) ( >= lam8n2 0 ) ( >= lam8n4 0 ) ( > ( + ( * 1 lam8n0 ) ( * 1 lam8n1 ) ( * 1 lam8n2 ) ( * Nl2CT1 lam8n4 ) ( - 1 ) ) 0 ) ( = ( + ( * ( - 1 ) lam8n0 ) ( * Nl2arg11 lam8n4 ) ) 0 ) ( = ( + ( * 1 lam8n1 ) ( * 1 lam8n3 ) ( * Nl2arg21 lam8n4 ) ) 0 ) ( = ( + ( * ( - 1 ) lam8n1 ) ( * ( - 1 ) lam8n2 ) ( * Nl2arg31 lam8n4 ) ) 0 ) ( = ( * Nl2arg41 lam8n4 ) 0 ) ( = ( * ( - 2 ) lam8n3 ) 0 ) ) ( and ( >= lam10n0 0 ) ( >= lam10n1 0 ) ( >= lam10n2 0 ) ( >= lam10n5 0 ) ( > ( + ( * 1 lam10n0 ) ( * 1 lam10n1 ) ( * 1 lam10n2 ) ( * ( - 1 ) lam10n3 ) ( * Nl2CT1 lam10n5 ) ( - 1 ) ) 0 ) ( = ( + ( * ( - 1 ) lam10n0 ) ( * Nl2arg11 lam10n5 ) ) 0 ) ( = ( + ( * 1 lam10n1 ) ( * 1 lam10n3 ) ( * 1 lam10n4 ) ( * Nl2arg21 lam10n5 ) ) 0 ) ( = ( + ( * ( - 1 ) lam10n1 ) ( * ( - 1 ) lam10n2 ) ( * Nl2arg31 lam10n5 ) ) 0 ) ( = ( * Nl2arg41 lam10n5 ) 0 ) ( = ( * ( - 2 ) lam10n3 ) 0 ) ( = ( * ( - 3 ) lam10n4 ) 0 ) ) ( and ( >= lam12n0 0 ) ( >= lam12n1 0 ) ( >= lam12n2 0 ) ( >= lam12n3 0 ) ( >= lam12n6 0 ) ( > ( + ( * 1 lam12n0 ) ( * 1 lam12n1 ) ( * 1 lam12n2 ) ( * 1 lam12n3 ) ( * ( - 1 ) lam12n4 ) ( * Nl2CT1 lam12n6 ) ( - 1 ) ) 0 ) ( = ( + ( * ( - 1 ) lam12n0 ) ( * Nl2arg11 lam12n6 ) ) 0 ) ( = ( + ( * 1 lam12n1 ) ( * ( - 1 ) lam12n2 ) ( * 1 lam12n4 ) ( * 1 lam12n5 ) ( * Nl2arg21 lam12n6 ) ) 0 ) ( = ( + ( * ( - 1 ) lam12n1 ) ( * ( - 1 ) lam12n3 ) ( * Nl2arg31 lam12n6 ) ) 0 ) ( = ( * Nl2arg41 lam12n6 ) 0 ) ( = ( * ( - 2 ) lam12n4 ) 0 ) ( = ( * 3 lam12n2 ) 0 ) ( = ( * ( - 5 ) lam12n5 ) 0 ) ) ( and ( >= lam14n0 0 ) ( >= lam14n1 0 ) ( >= lam14n2 0 ) ( >= lam14n3 0 ) ( >= lam14n4 0 ) ( >= lam14n5 0 ) ( >= lam14n6 0 ) ( >= lam14n7 0 ) ( >= lam14n9 0 ) ( > ( + ( * 1 lam14n0 ) ( * 1 lam14n1 ) ( * 1 lam14n2 ) ( * 1 lam14n3 ) ( * 1 lam14n4 ) ( * ( - 2 ) lam14n6 ) ( * ( - 4 ) lam14n7 ) ( * ( - 1 ) lam14n8 ) ( * Nl3CT1 lam14n9 ) ( - 1 ) ) 0 ) ( = ( + ( * ( - 1 ) lam14n0 ) ( * ( - 1 ) lam14n5 ) ( * Nl3arg11 lam14n9 ) ) 0 ) ( = ( + ( * 1 lam14n1 ) ( * ( - 1 ) lam14n2 ) ( * ( - 1 ) lam14n3 ) ( * 1 lam14n6 ) ( * 1 lam14n7 ) ( * 1 lam14n8 ) ( * Nl3arg21 lam14n9 ) ) 0 ) ( = ( + ( * ( - 1 ) lam14n1 ) ( * Nl3arg31 lam14n9 ) ) 0 ) ( = ( * Nl3arg41 lam14n9 ) 0 ) ( = ( + ( * ( - 1 ) lam14n4 ) ( * 1 lam14n5 ) ) 0 ) ( = ( + ( * 5 lam14n2 ) ( * ( - 5 ) lam14n7 ) ) 0 ) ( = ( + ( * 3 lam14n3 ) ( * ( - 3 ) lam14n6 ) ) 0 ) ( = ( * ( - 2 ) lam14n8 ) 0 ) ) ( and ( >= lam16n0 0 ) ( >= lam16n1 0 ) ( >= lam16n2 0 ) ( >= lam16n3 0 ) ( >= lam16n4 0 ) ( >= lam16n5 0 ) ( >= lam16n6 0 ) ( >= lam16n9 0 ) ( > ( + ( * 1 lam16n0 ) ( * 1 lam16n1 ) ( * 1 lam16n2 ) ( * 1 lam16n3 ) ( * 1 lam16n4 ) ( * ( - 2 ) lam16n6 ) ( * ( - 1 ) lam16n7 ) ( * Nl3CT1 lam16n9 ) ( - 1 ) ) 0 ) ( = ( + ( * ( - 1 ) lam16n0 ) ( * ( - 1 ) lam16n5 ) ( * Nl3arg11 lam16n9 ) ) 0 ) ( = ( + ( * 1 lam16n1 ) ( * ( - 1 ) lam16n2 ) ( * 1 lam16n6 ) ( * 1 lam16n7 ) ( * 1 lam16n8 ) ( * Nl3arg21 lam16n9 ) ) 0 ) ( = ( + ( * ( - 1 ) lam16n1 ) ( * ( - 1 ) lam16n3 ) ( * Nl3arg31 lam16n9 ) ) 0 ) ( = ( * Nl3arg41 lam16n9 ) 0 ) ( = ( + ( * ( - 1 ) lam16n4 ) ( * 1 lam16n5 ) ) 0 ) ( = ( + ( * 3 lam16n2 ) ( * ( - 3 ) lam16n6 ) ) 0 ) ( = ( * ( - 2 ) lam16n7 ) 0 ) ( = ( * ( - 5 ) lam16n8 ) 0 ) ) ( and ( >= lam18n0 0 ) ( >= lam18n1 0 ) ( >= lam18n2 0 ) ( >= lam18n3 0 ) ( >= lam18n4 0 ) ( >= lam18n6 0 ) ( > ( + ( * 1 lam18n0 ) ( * 1 lam18n1 ) ( * 1 lam18n2 ) ( * 1 lam18n3 ) ( * Nl3CT1 lam18n6 ) ( - 1 ) ) 0 ) ( = ( + ( * ( - 1 ) lam18n0 ) ( * ( - 1 ) lam18n4 ) ( * Nl3arg11 lam18n6 ) ) 0 ) ( = ( + ( * 1 lam18n1 ) ( * 1 lam18n5 ) ( * Nl3arg21 lam18n6 ) ) 0 ) ( = ( + ( * ( - 1 ) lam18n1 ) ( * ( - 1 ) lam18n2 ) ( * Nl3arg31 lam18n6 ) ) 0 ) ( = ( * Nl3arg41 lam18n6 ) 0 ) ( = ( + ( * ( - 1 ) lam18n3 ) ( * 1 lam18n4 ) ) 0 ) ( = ( * ( - 2 ) lam18n5 ) 0 ) ) ( and ( >= lam20n0 0 ) ( >= lam20n1 0 ) ( >= lam20n2 0 ) ( >= lam20n3 0 ) ( >= lam20n4 0 ) ( >= lam20n7 0 ) ( > ( + ( * 1 lam20n0 ) ( * 1 lam20n1 ) ( * 1 lam20n2 ) ( * 1 lam20n3 ) ( * ( - 1 ) lam20n5 ) ( * Nl3CT1 lam20n7 ) ( - 1 ) ) 0 ) ( = ( + ( * ( - 1 ) lam20n0 ) ( * ( - 1 ) lam20n4 ) ( * Nl3arg11 lam20n7 ) ) 0 ) ( = ( + ( * 1 lam20n1 ) ( * 1 lam20n5 ) ( * 1 lam20n6 ) ( * Nl3arg21 lam20n7 ) ) 0 ) ( = ( + ( * ( - 1 ) lam20n1 ) ( * ( - 1 ) lam20n2 ) ( * Nl3arg31 lam20n7 ) ) 0 ) ( = ( * Nl3arg41 lam20n7 ) 0 ) ( = ( + ( * ( - 1 ) lam20n3 ) ( * 1 lam20n4 ) ) 0 ) ( = ( * ( - 2 ) lam20n5 ) 0 ) ( = ( * ( - 3 ) lam20n6 ) 0 ) ) ( and ( >= lam22n0 0 ) ( >= lam22n1 0 ) ( >= lam22n2 0 ) ( >= lam22n3 0 ) ( >= lam22n4 0 ) ( > ( + ( * 1 lam22n0 ) ( * 1 lam22n1 ) ( * ( - 99 ) lam22n3 ) ( * Nl4CT1 lam22n4 ) ( - 1 ) ) 0 ) ( = ( + ( * ( - 1 ) lam22n0 ) ( * ( - 1 ) lam22n2 ) ( * Nl4arg11 lam22n4 ) ) 0 ) ( = ( * Nl4arg21 lam22n4 ) 0 ) ( = ( + ( * 1 lam22n3 ) ( * Nl4arg31 lam22n4 ) ) 0 ) ( = ( * Nl4arg41 lam22n4 ) 0 ) ( = ( + ( * ( - 1 ) lam22n1 ) ( * 1 lam22n2 ) ) 0 ) ) ( and ( >= lam24n0 0 ) ( >= lam24n1 0 ) ( >= lam24n2 0 ) ( >= lam24n3 0 ) ( >= lam24n4 0 ) ( >= lam24n5 0 ) ( > ( + ( * 1 lam24n0 ) ( * 1 lam24n1 ) ( * 100 lam24n4 ) ( * Nl4CT1 lam24n5 ) ( - 1 ) ) 0 ) ( = ( + ( * ( - 1 ) lam24n0 ) ( * ( - 1 ) lam24n2 ) ( * Nl4arg11 lam24n5 ) ) 0 ) ( = ( * Nl4arg21 lam24n5 ) 0 ) ( = ( + ( * ( - 1 ) lam24n4 ) ( * Nl4arg31 lam24n5 ) ) 0 ) ( = ( + ( * ( - 1 ) lam24n3 ) ( * Nl4arg41 lam24n5 ) ) 0 ) ( = ( + ( * ( - 1 ) lam24n1 ) ( * 1 lam24n2 ) ) 0 ) ) ))
(check-sat)
(exit)
